
Gurobi 11.0.3 (mac64[x86]) logging started Tue Apr  8 20:42:11 2025

Set parameter LogFile to value "Results/Conservative_experiment/sanity_check_v12.log"
Set parameter TimeLimit to value 84600
Set parameter Method to value 2
Set parameter Crossover to value 0
Set parameter BarConvTol to value 1e-10
Gurobi Optimizer version 11.0.3 build v11.0.3rc0 (mac64[x86] - Darwin 23.4.0 23E214)

CPU model: Intel(R) Core(TM) i7-1060NG7 CPU @ 1.20GHz
Thread count: 4 physical cores, 8 logical processors, using up to 8 threads

Optimize a model with 3282976 rows, 3705248 columns and 14996144 nonzeros
Model fingerprint: 0xf8649a10
Coefficient statistics:
  Matrix range     [2e-01, 3e+00]
  Objective range  [6e-05, 5e+00]
  Bounds range     [0e+00, 0e+00]
  RHS range        [4e+00, 1e+03]
Presolve removed 1801504 rows and 1850000 columns (presolve time = 5s) ...
Presolve removed 2065500 rows and 2113996 columns (presolve time = 10s) ...
Presolve removed 2625734 rows and 2827086 columns
Presolve time: 12.62s
Presolved: 657242 rows, 878162 columns, 3593400 nonzeros
Ordering time: 2.03s

Barrier statistics:
 AA' NZ     : 1.949e+06
 Factor NZ  : 2.111e+07 (roughly 260 MB of memory)
 Factor Ops : 1.686e+10 (less than 1 second per iteration)
 Threads    : 4

                  Objective                Residual
Iter       Primal          Dual         Primal    Dual     Compl     Time
   0   3.07685208e+06  7.88201304e+06  5.98e+04 3.85e+00  1.15e+04    17s
   1   2.74119729e+06  7.54982747e+06  5.68e+04 1.48e+01  1.06e+04    17s
   2   4.27134871e+05  6.59165495e+06  4.27e+04 5.23e+00  7.21e+03    18s
   3  -6.18166661e+06  5.18150939e+06  5.52e+03 7.02e-01  1.05e+03    19s
   4  -2.12154482e+06  1.88201955e+06  6.14e+02 4.92e-02  1.36e+02    19s
   5  -5.60357946e+05  2.99381032e+05  1.46e+02 2.06e-03  3.05e+01    20s
   6  -1.05701641e+05  9.20578786e+04  2.44e+01 1.72e-04  5.54e+00    21s
   7  -1.23023613e+04  3.22887767e+04  2.01e+00 1.99e-13  6.88e-01    21s
   8  -2.18013336e+03  7.03619168e+03  3.09e-01 4.62e-14  1.07e-01    22s
   9   2.34119053e+02  1.15223493e+03  1.12e-02 4.01e-14  8.99e-03    23s
  10   3.30830476e+02  5.37848903e+02  2.48e-03 3.70e-14  2.02e-03    24s
  11   3.58039190e+02  4.05429879e+02  5.93e-04 4.32e-14  4.63e-04    25s
  12   3.67407018e+02  3.78750972e+02  2.53e-05 4.35e-14  1.07e-04    26s
  13   3.67878749e+02  3.73907024e+02  8.19e-06 5.57e-14  5.68e-05    26s
  14   3.67953534e+02  3.71884280e+02  6.13e-06 5.91e-14  3.71e-05    27s
  15   3.68007701e+02  3.70465716e+02  4.52e-06 6.65e-14  2.32e-05    28s
  16   3.68024211e+02  3.70183435e+02  4.05e-06 6.53e-14  2.04e-05    28s
  17   3.68025014e+02  3.70172659e+02  4.03e-06 9.06e-14  2.03e-05    29s
  18   3.68027451e+02  3.70122428e+02  3.93e-06 9.59e-14  1.98e-05    30s
  19   3.68034903e+02  3.70032164e+02  3.74e-06 1.41e-13  1.89e-05    31s
  20   3.68057886e+02  3.69775752e+02  3.21e-06 1.07e-13  1.62e-05    31s
  21   3.68088891e+02  3.69614771e+02  2.77e-06 1.36e-13  1.44e-05    32s
  22   3.68158788e+02  3.69422786e+02  2.06e-06 1.48e-13  1.19e-05    33s
  23   3.68214110e+02  3.69379749e+02  1.82e-06 9.31e-14  1.10e-05    34s
  24   3.68435545e+02  3.69294777e+02  1.07e-06 1.04e-13  8.11e-06    34s
  25   3.68576463e+02  3.69257520e+02  8.72e-07 1.01e-13  6.43e-06    35s
  26   3.68665257e+02  3.69230183e+02  7.21e-07 1.07e-13  5.33e-06    36s
  27   3.68744404e+02  3.69199060e+02  5.94e-07 1.02e-13  4.29e-06    37s
  28   3.68754652e+02  3.69195139e+02  5.77e-07 1.40e-13  4.16e-06    38s
  29   3.68820505e+02  3.69174764e+02  4.67e-07 9.59e-14  3.34e-06    38s
  30   3.68829790e+02  3.69173592e+02  4.50e-07 1.03e-13  3.25e-06    39s
  31   3.68873257e+02  3.69146969e+02  3.68e-07 9.77e-14  2.58e-06    40s
  32   3.68913928e+02  3.69069795e+02  2.64e-07 1.25e-13  1.47e-06    41s
  33   3.68919296e+02  3.69033444e+02  2.13e-07 1.42e-13  1.08e-06    42s
  34   3.68924379e+02  3.68986102e+02  1.14e-07 1.59e-13  5.86e-07    42s
  35   3.68930549e+02  3.68960468e+02  6.99e-08 2.50e-13  2.85e-07    44s
  36   3.68933654e+02  3.68948438e+02  3.05e-08 2.26e-13  1.41e-07    44s
  37   3.68936377e+02  3.68939887e+02  4.29e-09 2.76e-13  3.33e-08    45s
  38   3.68936967e+02  3.68937102e+02  2.75e-09 3.96e-13  1.28e-09    46s
  39   3.68937000e+02  3.68937000e+02  4.64e-11 3.66e-13  1.34e-12    47s
  40   3.68937000e+02  3.68937000e+02  6.24e-11 3.83e-13  1.27e-15    48s

Barrier solved model in 40 iterations and 47.59 seconds (35.14 work units)
Optimal objective 3.68937000e+02

